RT is False
Default write of storage_offers_DA.csv just to have a file (but constraint should be inactive)
Reading model...
...model read.
creating competitive generators file...
...competitive generators recorded.
Loading data...
.. day-ahead data with real-time VRE data read.
Compiling instance...
...instance created.
Creating Offer Mitigation (model will solve as dispatch if TRUE)...
...storage offer mitigation file created
Converting model to MPEC...
...converted
NOTE: initial MIP solve with only storage competitive to get feasible solution
Solving...

Welcome to IBM(R) ILOG(R) CPLEX(R) Interactive Optimizer 12.9.0.0
  with Simplex, Mixed Integer & Barrier Optimizers
5725-A06 5725-A29 5724-Y48 5724-Y49 5724-Y54 5724-Y55 5655-Y21
Copyright IBM Corp. 1988, 2019.  All Rights Reserved.

Type 'help' for a list of available commands.
Type 'help' followed by a command name for more
information on commands.

CPLEX> Logfile 'cplex.log' closed.
Logfile 'C:\Users\llavin\Desktop\test826\logs\tmp4fkean3_.cplex.log' open.
CPLEX> New value for parallel optimization mode: -1
CPLEX> New value for mixed integer optimality gap tolerance: 0.01
CPLEX> New value for emphasis for MIP optimization: 1
CPLEX> New value for integrality tolerance: 1e-12
CPLEX> New value for deterministic time limit in ticks: 50000
CPLEX> Problem 'C:\Users\llavin\Desktop\test826\logs\tmpkb6ejtcf.pyomo.lp' read.
Read time = 0.23 sec. (14.73 ticks)
CPLEX> Problem name         : C:\Users\llavin\Desktop\test826\logs\tmpkb6ejtcf.pyomo.lp
Objective sense      : Maximize
Variables            :   53805  [Nneg: 1,  Box: 22000,  Free: 4464,
                                 Binary: 27340]
Objective nonzeros   :    9029
Linear constraints   :  123205  [Less: 41346,  Greater: 59096,  Equal: 22763]
  Nonzeros           :  291753
  RHS nonzeros       :   67491

Variables            : Min LB: -5000.000        Max UB: 1000000.       
Objective nonzeros   : Min   : 0.07500000       Max   : 2500.000       
Linear constraints   :
  Nonzeros           : Min   : 0.07500000       Max   : 1000000.       
  RHS nonzeros       : Min   : 0.07500000       Max   : 1000000.       
CPLEX> CPXPARAM_Parallel                                -1
CPXPARAM_Emphasis_MIP                            1
CPXPARAM_DetTimeLimit                            50000
CPXPARAM_MIP_Tolerances_MIPGap                   0.01
CPXPARAM_MIP_Tolerances_Integrality              9.9999999999999998e-13
Tried aggregator 3 times.
MIP Presolve eliminated 88702 rows and 19026 columns.
MIP Presolve added 3376 rows and 0 columns.
MIP Presolve modified 24811 coefficients.
Aggregator did 12965 substitutions.
Reduced MIP has 24914 rows, 21258 columns, and 71056 nonzeros.
Reduced MIP has 8399 binaries, 0 generals, 0 SOSs, and 0 indicators.
Presolve time = 0.28 sec. (167.99 ticks)
Probing fixed 383 vars, tightened 4076 bounds.
Probing time = 0.06 sec. (18.71 ticks)
Tried aggregator 2 times.
MIP Presolve eliminated 865 rows and 768 columns.
MIP Presolve modified 3036 coefficients.
Aggregator did 36 substitutions.
Reduced MIP has 24013 rows, 20454 columns, and 68440 nonzeros.
Reduced MIP has 8016 binaries, 0 generals, 0 SOSs, and 0 indicators.
Presolve time = 0.11 sec. (89.30 ticks)
Probing fixed 0 vars, tightened 237 bounds.
Probing time = 0.14 sec. (22.49 ticks)
Clique table members: 44796.
MIP emphasis: integer feasibility.
MIP search method: dynamic search.
Parallel mode: opportunistic, using up to 32 threads.
Root relaxation solution time = 0.47 sec. (674.98 ticks)

        Nodes                                         Cuts/
   Node  Left     Objective  IInf  Best Integer    Best Bound    ItCnt     Gap

      0     0      -22.9771   192                    -22.9771     5680         
      0     0      -22.9771     2                     Cuts: 7     5682         
      0    26    infeasible                       Impl Bds: 1     6095         
Elapsed time = 3.13 sec. (1636.15 ticks, tree = 0.04 MB, solutions = 0)
    513   117   -62313.4160    26                    -77.8064    10716         
    881   403  -122174.0423    60                    -77.8064    32438         
   1405   455  -683756.5650    38                    -77.8064    47372         
   1952   448   -46732.8260    36                    -77.8064    44312         
   2459  1001   -58974.4323   167                    -77.8064    82606         
   3064  1032    infeasible                          -77.8064    87408         
   3605  1220     -302.5673   141                    -77.8064    95673         
   4202  1655  -228229.3644   148                    -77.8064   124801         
   4793  1739    infeasible                          -77.8064   133697         
   7381  2044     -629.0263    80                    -77.8064   149073         
Elapsed time = 19.28 sec. (4741.50 ticks, tree = 67.68 MB, solutions = 0)
  10134  3237    infeasible                          -77.8064   201582         
  12367  3442    -4134.5072    38                    -77.8064   204920         
  13034  3347   -84571.0534   167                    -77.8064   206719         
  13522  4038    infeasible                          -77.8064   217316         
  13956  3281  -594357.5768   175                    -77.8064   209296         
  14337  3843    -5804.4583    44                    -77.8064   212776         
  14480  3831      -77.8064     2                    -77.8064   213191         
  14524  3833     -198.2863     2                    -77.8064   213208         
  14554  4051    infeasible                          -77.8064   217106         
  14575  8791    infeasible                          -77.8064   346939         
Elapsed time = 37.00 sec. (16603.16 ticks, tree = 167.88 MB, solutions = 0)
  16975  1333   -67080.4892    38                    -77.8064   387778         
* 18795+ 1107                         -200.3815      -77.8064            61.17%
  20865  1044        cutoff           -200.3815      -77.8064   460606   61.17%
  20914  1433        cutoff           -200.3815      -78.7541   469555   60.70%
  22962    39     -193.2879     9     -200.3815      -80.5002   482584   59.83%

GUB cover cuts applied:  1
Cover cuts applied:  6
Implied bound cuts applied:  27
Flow cuts applied:  10
Mixed integer rounding cuts applied:  17
Gomory fractional cuts applied:  3

Root node processing (before b&c):
  Real time             =    2.19 sec. (1628.21 ticks)
Parallel b&c, 32 threads:
  Real time             =   51.53 sec. (19734.13 ticks)
  Sync time (average)   =    1.99 sec.
  Wait time (average)   =    0.31 sec.
                          ------------
Total (root+branch&cut) =   53.72 sec. (21362.34 ticks)

Solution pool: 1 solution saved.

MIP - Integer optimal, tolerance (0.01/1e-06):  Objective = -2.0038149777e+02
Current MIP best bound = -1.9859365057e+02 (gap = 1.78785, 0.89%)
Solution time =   53.75 sec.  Iterations = 484527  Nodes = 22974 (7)
Deterministic time = 21362.49 ticks  (397.44 ticks/sec)

CPLEX> Incumbent solution written to file 'C:\Users\llavin\Desktop\test826\logs\tmpnxl5_7l4.cplex.sol'.
CPLEX> NOTE: no warmstart specified for MIP iteration, default behavior is true
NOTE: resolving with all competitive generators using storage-only solution to warmstart
Solving...

Welcome to IBM(R) ILOG(R) CPLEX(R) Interactive Optimizer 12.9.0.0
  with Simplex, Mixed Integer & Barrier Optimizers
5725-A06 5725-A29 5724-Y48 5724-Y49 5724-Y54 5724-Y55 5655-Y21
Copyright IBM Corp. 1988, 2019.  All Rights Reserved.

Type 'help' for a list of available commands.
Type 'help' followed by a command name for more
information on commands.

CPLEX> Logfile 'cplex.log' closed.
Logfile 'C:\Users\llavin\Desktop\test826\logs\tmp0nesm2_k.cplex.log' open.
CPLEX> New value for parallel optimization mode: -1
CPLEX> New value for mixed integer optimality gap tolerance: 0.01
CPLEX> New value for emphasis for MIP optimization: 1
CPLEX> New value for integrality tolerance: 1e-12
CPLEX> New value for deterministic time limit in ticks: 50000
CPLEX> Problem 'C:\Users\llavin\Desktop\test826\logs\tmp8mie4pb1.pyomo.lp' read.
Read time = 0.25 sec. (14.75 ticks)
CPLEX> MIP start file 'C:\Users\llavin\Desktop\test826\logs\tmpceb3c9_5.cplex.mst' read.
CPLEX> Problem name         : C:\Users\llavin\Desktop\test826\logs\tmp8mie4pb1.pyomo.lp
Objective sense      : Maximize
Variables            :   54525  [Nneg: 1,  Box: 22720,  Free: 4464,
                                 Binary: 27340]
Objective nonzeros   :    9725
Linear constraints   :  123205  [Less: 41346,  Greater: 59096,  Equal: 22763]
  Nonzeros           :  291753
  RHS nonzeros       :   67491

Variables            : Min LB: -5000.000        Max UB: 1000000.       
Objective nonzeros   : Min   : 0.07500000       Max   : 2500.000       
Linear constraints   :
  Nonzeros           : Min   : 0.07500000       Max   : 1000000.       
  RHS nonzeros       : Min   : 0.07500000       Max   : 1000000.       
CPLEX> CPXPARAM_Parallel                                -1
CPXPARAM_Emphasis_MIP                            1
CPXPARAM_DetTimeLimit                            50000
CPXPARAM_MIP_Tolerances_MIPGap                   0.01
CPXPARAM_MIP_Tolerances_Integrality              9.9999999999999998e-13
Warning:  No solution found from 1 MIP starts.
Retaining values of one MIP start for possible repair.
Tried aggregator 3 times.
MIP Presolve eliminated 88702 rows and 19746 columns.
MIP Presolve added 3376 rows and 0 columns.
MIP Presolve modified 24811 coefficients.
Aggregator did 12965 substitutions.
Reduced MIP has 24914 rows, 21258 columns, and 71056 nonzeros.
Reduced MIP has 8399 binaries, 0 generals, 0 SOSs, and 0 indicators.
Presolve time = 0.30 sec. (168.34 ticks)
Probing fixed 383 vars, tightened 4076 bounds.
Probing time = 0.06 sec. (18.71 ticks)
Tried aggregator 2 times.
MIP Presolve eliminated 865 rows and 768 columns.
MIP Presolve modified 3036 coefficients.
Aggregator did 36 substitutions.
Reduced MIP has 24013 rows, 20454 columns, and 68440 nonzeros.
Reduced MIP has 8016 binaries, 0 generals, 0 SOSs, and 0 indicators.
Presolve time = 0.11 sec. (89.31 ticks)
Probing fixed 0 vars, tightened 237 bounds.
Probing time = 0.14 sec. (22.49 ticks)
Clique table members: 44796.
MIP emphasis: integer feasibility.
MIP search method: dynamic search.
Parallel mode: opportunistic, using up to 32 threads.
Root relaxation solution time = 0.52 sec. (720.60 ticks)

        Nodes                                         Cuts/
   Node  Left     Objective  IInf  Best Integer    Best Bound    ItCnt     Gap

      0     0    51348.1705   192                  51348.1705     6150         
      0     0    51125.1115    70                    Cuts: 84     6240         
      0     0    51104.8763    61                    Cuts: 51     6269         
      0     0    51021.0616    64                    Cuts: 28     6303         
Repair heuristic found nothing.
      0    30    40278.0185    29                    Cuts: 14     6795         
Elapsed time = 4.17 sec. (1779.80 ticks, tree = 0.02 MB, solutions = 0)
    648   152    49585.5936    21                  50817.6777     8715         
*   734   575      integral     0    50069.6190    50817.6777    15803    1.49%
   1196   295    50776.6889    32    50069.6190    50806.0710    22483    1.47%
   2013   737    50621.5122    44    50069.6190    50806.0710    33272    1.47%
   2861   648    50283.0306    35    50069.6190    50802.0555    29422    1.46%
   3772   966    50579.2573    35    50069.6190    50769.4084    37468    1.40%
   4560  1309    50271.4475    33    50069.6190    50769.4084    44488    1.40%
   5034  1367    50227.5596    51    50069.6190    50682.8678    48112    1.22%

Cover cuts applied:  11
Implied bound cuts applied:  9
Flow cuts applied:  112
Mixed integer rounding cuts applied:  1
Gomory fractional cuts applied:  5

Root node processing (before b&c):
  Real time             =    2.64 sec. (1744.67 ticks)
Parallel b&c, 32 threads:
  Real time             =   10.52 sec. (1780.39 ticks)
  Sync time (average)   =    2.08 sec.
  Wait time (average)   =    0.00 sec.
                          ------------
Total (root+branch&cut) =   13.16 sec. (3525.06 ticks)

Solution pool: 1 solution saved.

MIP - Integer optimal, tolerance (0.01/1e-06):  Objective =  5.0069618970e+04
Current MIP best bound =  5.0570270912e+04 (gap = 500.652, 1.00%)
Solution time =   13.20 sec.  Iterations = 52981  Nodes = 5046 (1524)
Deterministic time = 3525.21 ticks  (267.00 ticks/sec)

CPLEX> Incumbent solution written to file 'C:\Users\llavin\Desktop\test826\logs\tmpxqir4x0i.cplex.sol'.
CPLEX> Exporting results... 
